c turning on binary mode checking
c parsing input formula with 202048 variables and 780980 clauses
c finished parsing, read 2328018 bytes from proof file
c detected empty clause; start verification via backward checking
c 732 of 780980 clauses in core                            
c 165 of 92363 lemmas in core using 5051 resolution steps
c 0 RAT lemmas in core; 1 redundant literals in core lemmas
s VERIFIED
c verification time: 1.014 seconds
